
;this file is automatically generated: Mon Feb 10 17:01:40 CST 2020

;declarations generated

(declare-fun oclExcludes ( Int Int) Bool)
(declare-fun obj_8ad51216_d517_42ff_9fec_7b49f81e4962 ( Int) Int)
(declare-fun Cardinality ( Int) Int)
(declare-fun class37_Class37BoolAttr0 ( Int) Bool)
(declare-fun type_1241e009_154e_44ad_8afe_15d8352cfd4e_Class37 ( Int) Bool)
(declare-fun oclSelect ( Int Bool) Int)
(declare-fun Enum0 ( Int) Int)
(declare-fun Enum1 ( Int) Int)
(declare-fun Enum2 ( Int) Int)
(declare-fun container_ ( Int) Int)
(declare-fun oclIncludes ( Int Int) Bool)
(declare-fun ObjAt ( Int Int) Int)

;formula(s) generated
(assert (! (exists ((c1 Int)) (and ( type_1241e009_154e_44ad_8afe_15d8352cfd4e_Class37 c1 )  ( class37_Class37BoolAttr0 ( obj_8ad51216_d517_42ff_9fec_7b49f81e4962 c1 )  ) )):named l0))
(assert (exists ((o Int)) ( type_1241e009_154e_44ad_8afe_15d8352cfd4e_Class37 ( obj_8ad51216_d517_42ff_9fec_7b49f81e4962 o )  ) ))

 ;end of formula 